language Essence 1.3

letting class be function(1 --> 1, 2 --> 1, 3 --> 1, 4 --> 1, 5 --> 2, 6 --> 1, 7 --> 1)
letting deck_length be 79
letting deck_width be 77
letting length be function(1 --> 61, 2 --> 11, 3 --> 1, 4 --> 1, 5 --> 1, 6 --> 1, 7 --> 1)
letting n_classes be 2
letting n_containers be 7
letting separation be function({1, 2} --> 75)
letting width be function(1 --> 68, 2 --> 55, 3 --> 40, 4 --> 3, 5 --> 6, 6 --> 2, 7 --> 1)
